nNurses = 92;
nHours = 31;
minHours = 9;
maxHours = 13;
maxConsec = 10;
maxPresence = 8;
demand = [21, 26, 26, 21, 22, 23, 20, 23, 25, 25, 30, 35, 30, 25, 20, 16, 12, 11, 9, 8, 10, 13, 17, 14, 9, 7, 9, 13, 13, 11, 8];
